
(set-option :produce-models true)
(set-option :inline-size-limit 10000)

(declare-const var0 String)

(push 1)
(assert (str.in.re var0 (re.* (re.range "\x01" "\xff"))))
(assert (str.in.re var0 (re.++ (re.*? re.allchar) (re.++ (re.++ ((_ re.capture 1) (re.union (re.++ (re.opt (re.range "0" "8")) (re.++ (re.range "0" "9") (re.++ (re.opt (re.range "0" "5")) (re.++ (re.range "0" "9") (re.++ (re.opt (re.range "0" "5")) (re.range "0" "9")))))) (re.++ (str.to.re "9") (re.++ (str.to.re "0") (re.++ (str.to.re "0") (re.++ (str.to.re "0") (re.++ (str.to.re "0") (str.to.re "0")))))))) (re.++ (re.union (str.to.re "N") (str.to.re "S")) (re.++ ((_ re.capture 2) (re.union (re.++ (re.opt (re.range "0" "1")) (re.++ (re.opt (re.range "0" "7")) (re.++ (re.range "0" "9") (re.++ (re.opt (re.range "0" "5")) (re.++ (re.range "0" "9") (re.++ (re.opt (re.range "0" "5")) (re.range "0" "9"))))))) (re.++ (str.to.re "1") (re.++ (str.to.re "8") (re.++ (str.to.re "0") (re.++ (str.to.re "0") (re.++ (str.to.re "0") (re.++ (str.to.re "0") (str.to.re "0"))))))))) (re.++ (re.union (str.to.re "E") (str.to.re "W")) ((_ re.loop 0 3) (re.range "0" "9")))))) re.all))))	; match!==null
(assert (not (str.in.re ((_ str.extract 1) var0 (re.++ (re.*? re.allchar) (re.++ (re.++ ((_ re.capture 1) (re.union (re.++ (re.opt (re.range "0" "8")) (re.++ (re.range "0" "9") (re.++ (re.opt (re.range "0" "5")) (re.++ (re.range "0" "9") (re.++ (re.opt (re.range "0" "5")) (re.range "0" "9")))))) (re.++ (str.to.re "9") (re.++ (str.to.re "0") (re.++ (str.to.re "0") (re.++ (str.to.re "0") (re.++ (str.to.re "0") (str.to.re "0")))))))) (re.++ (re.union (str.to.re "N") (str.to.re "S")) (re.++ ((_ re.capture 2) (re.union (re.++ (re.opt (re.range "0" "1")) (re.++ (re.opt (re.range "0" "7")) (re.++ (re.range "0" "9") (re.++ (re.opt (re.range "0" "5")) (re.++ (re.range "0" "9") (re.++ (re.opt (re.range "0" "5")) (re.range "0" "9"))))))) (re.++ (str.to.re "1") (re.++ (str.to.re "8") (re.++ (str.to.re "0") (re.++ (str.to.re "0") (re.++ (str.to.re "0") (re.++ (str.to.re "0") (str.to.re "0"))))))))) (re.++ (re.union (str.to.re "E") (str.to.re "W")) ((_ re.loop 0 3) (re.range "0" "9")))))) re.all))) (str.to.re "\x00"))))
;match[1]!==null
(assert (str.in.re ((_ str.extract 1) var0 (re.++ (re.*? re.allchar) (re.++ (re.++ ((_ re.capture 1) (re.union (re.++ (re.opt (re.range "0" "8")) (re.++ (re.range "0" "9") (re.++ (re.opt (re.range "0" "5")) (re.++ (re.range "0" "9") (re.++ (re.opt (re.range "0" "5")) (re.range "0" "9")))))) (re.++ (str.to.re "9") (re.++ (str.to.re "0") (re.++ (str.to.re "0") (re.++ (str.to.re "0") (re.++ (str.to.re "0") (str.to.re "0")))))))) (re.++ (re.union (str.to.re "N") (str.to.re "S")) (re.++ ((_ re.capture 2) (re.union (re.++ (re.opt (re.range "0" "1")) (re.++ (re.opt (re.range "0" "7")) (re.++ (re.range "0" "9") (re.++ (re.opt (re.range "0" "5")) (re.++ (re.range "0" "9") (re.++ (re.opt (re.range "0" "5")) (re.range "0" "9"))))))) (re.++ (str.to.re "1") (re.++ (str.to.re "8") (re.++ (str.to.re "0") (re.++ (str.to.re "0") (re.++ (str.to.re "0") (re.++ (str.to.re "0") (str.to.re "0"))))))))) (re.++ (re.union (str.to.re "E") (str.to.re "W")) ((_ re.loop 0 3) (re.range "0" "9")))))) re.all))) (re.++ re.all(re.+ (re.range "a" "z")) re.all) ))
;/[a-z]+/.test(match[1]) == true
(check-sat)
(get-model)
(pop 1)
(push 1)
(assert (str.in.re var0 (re.* (re.range "\x01" "\xff"))))
(assert (str.in.re var0 (re.++ (re.*? re.allchar) (re.++ (re.++ ((_ re.capture 1) (re.union (re.++ (re.opt (re.range "0" "8")) (re.++ (re.range "0" "9") (re.++ (re.opt (re.range "0" "5")) (re.++ (re.range "0" "9") (re.++ (re.opt (re.range "0" "5")) (re.range "0" "9")))))) (re.++ (str.to.re "9") (re.++ (str.to.re "0") (re.++ (str.to.re "0") (re.++ (str.to.re "0") (re.++ (str.to.re "0") (str.to.re "0")))))))) (re.++ (re.union (str.to.re "N") (str.to.re "S")) (re.++ ((_ re.capture 2) (re.union (re.++ (re.opt (re.range "0" "1")) (re.++ (re.opt (re.range "0" "7")) (re.++ (re.range "0" "9") (re.++ (re.opt (re.range "0" "5")) (re.++ (re.range "0" "9") (re.++ (re.opt (re.range "0" "5")) (re.range "0" "9"))))))) (re.++ (str.to.re "1") (re.++ (str.to.re "8") (re.++ (str.to.re "0") (re.++ (str.to.re "0") (re.++ (str.to.re "0") (re.++ (str.to.re "0") (str.to.re "0"))))))))) (re.++ (re.union (str.to.re "E") (str.to.re "W")) ((_ re.loop 0 3) (re.range "0" "9")))))) re.all))))	; match!==null
(assert (not (str.in.re ((_ str.extract 1) var0 (re.++ (re.*? re.allchar) (re.++ (re.++ ((_ re.capture 1) (re.union (re.++ (re.opt (re.range "0" "8")) (re.++ (re.range "0" "9") (re.++ (re.opt (re.range "0" "5")) (re.++ (re.range "0" "9") (re.++ (re.opt (re.range "0" "5")) (re.range "0" "9")))))) (re.++ (str.to.re "9") (re.++ (str.to.re "0") (re.++ (str.to.re "0") (re.++ (str.to.re "0") (re.++ (str.to.re "0") (str.to.re "0")))))))) (re.++ (re.union (str.to.re "N") (str.to.re "S")) (re.++ ((_ re.capture 2) (re.union (re.++ (re.opt (re.range "0" "1")) (re.++ (re.opt (re.range "0" "7")) (re.++ (re.range "0" "9") (re.++ (re.opt (re.range "0" "5")) (re.++ (re.range "0" "9") (re.++ (re.opt (re.range "0" "5")) (re.range "0" "9"))))))) (re.++ (str.to.re "1") (re.++ (str.to.re "8") (re.++ (str.to.re "0") (re.++ (str.to.re "0") (re.++ (str.to.re "0") (re.++ (str.to.re "0") (str.to.re "0"))))))))) (re.++ (re.union (str.to.re "E") (str.to.re "W")) ((_ re.loop 0 3) (re.range "0" "9")))))) re.all))) (str.to.re "\x00"))))	
;match[1]!==null
(assert (not (str.in.re ((_ str.extract 1) var0 (re.++ (re.*? re.allchar) (re.++ (re.++ ((_ re.capture 1) (re.union (re.++ (re.opt (re.range "0" "8")) (re.++ (re.range "0" "9") (re.++ (re.opt (re.range "0" "5")) (re.++ (re.range "0" "9") (re.++ (re.opt (re.range "0" "5")) (re.range "0" "9")))))) (re.++ (str.to.re "9") (re.++ (str.to.re "0") (re.++ (str.to.re "0") (re.++ (str.to.re "0") (re.++ (str.to.re "0") (str.to.re "0")))))))) (re.++ (re.union (str.to.re "N") (str.to.re "S")) (re.++ ((_ re.capture 2) (re.union (re.++ (re.opt (re.range "0" "1")) (re.++ (re.opt (re.range "0" "7")) (re.++ (re.range "0" "9") (re.++ (re.opt (re.range "0" "5")) (re.++ (re.range "0" "9") (re.++ (re.opt (re.range "0" "5")) (re.range "0" "9"))))))) (re.++ (str.to.re "1") (re.++ (str.to.re "8") (re.++ (str.to.re "0") (re.++ (str.to.re "0") (re.++ (str.to.re "0") (re.++ (str.to.re "0") (str.to.re "0"))))))))) (re.++ (re.union (str.to.re "E") (str.to.re "W")) ((_ re.loop 0 3) (re.range "0" "9")))))) re.all))) (re.++ re.all(re.+ (re.range "a" "z")) re.all) )))
;/[a-z]+/.test(match[1]) == false	
(check-sat)
(get-model)
(pop 1)
(push 1)
(assert (str.in.re var0 (re.* (re.range "\x01" "\xff"))))
(assert (str.in.re var0 (re.++ (re.*? re.allchar) (re.++ (re.++ ((_ re.capture 1) (re.union (re.++ (re.opt (re.range "0" "8")) (re.++ (re.range "0" "9") (re.++ (re.opt (re.range "0" "5")) (re.++ (re.range "0" "9") (re.++ (re.opt (re.range "0" "5")) (re.range "0" "9")))))) (re.++ (str.to.re "9") (re.++ (str.to.re "0") (re.++ (str.to.re "0") (re.++ (str.to.re "0") (re.++ (str.to.re "0") (str.to.re "0")))))))) (re.++ (re.union (str.to.re "N") (str.to.re "S")) (re.++ ((_ re.capture 2) (re.union (re.++ (re.opt (re.range "0" "1")) (re.++ (re.opt (re.range "0" "7")) (re.++ (re.range "0" "9") (re.++ (re.opt (re.range "0" "5")) (re.++ (re.range "0" "9") (re.++ (re.opt (re.range "0" "5")) (re.range "0" "9"))))))) (re.++ (str.to.re "1") (re.++ (str.to.re "8") (re.++ (str.to.re "0") (re.++ (str.to.re "0") (re.++ (str.to.re "0") (re.++ (str.to.re "0") (str.to.re "0"))))))))) (re.++ (re.union (str.to.re "E") (str.to.re "W")) ((_ re.loop 0 3) (re.range "0" "9")))))) re.all))))	; match!==null
(assert (str.in.re ((_ str.extract 1) var0 (re.++ (re.*? re.allchar) (re.++ (re.++ ((_ re.capture 1) (re.union (re.++ (re.opt (re.range "0" "8")) (re.++ (re.range "0" "9") (re.++ (re.opt (re.range "0" "5")) (re.++ (re.range "0" "9") (re.++ (re.opt (re.range "0" "5")) (re.range "0" "9")))))) (re.++ (str.to.re "9") (re.++ (str.to.re "0") (re.++ (str.to.re "0") (re.++ (str.to.re "0") (re.++ (str.to.re "0") (str.to.re "0")))))))) (re.++ (re.union (str.to.re "N") (str.to.re "S")) (re.++ ((_ re.capture 2) (re.union (re.++ (re.opt (re.range "0" "1")) (re.++ (re.opt (re.range "0" "7")) (re.++ (re.range "0" "9") (re.++ (re.opt (re.range "0" "5")) (re.++ (re.range "0" "9") (re.++ (re.opt (re.range "0" "5")) (re.range "0" "9"))))))) (re.++ (str.to.re "1") (re.++ (str.to.re "8") (re.++ (str.to.re "0") (re.++ (str.to.re "0") (re.++ (str.to.re "0") (re.++ (str.to.re "0") (str.to.re "0"))))))))) (re.++ (re.union (str.to.re "E") (str.to.re "W")) ((_ re.loop 0 3) (re.range "0" "9")))))) re.all))) (str.to.re "\x00")))
;match[1]==null
(check-sat)
(get-model)
(pop 1)
(push 1)
(assert (str.in.re var0 (re.* (re.range "\x01" "\xff"))))
(assert (not (str.in.re var0 (re.++ (re.*? re.allchar) (re.++ (re.++ ((_ re.capture 1) (re.union (re.++ (re.opt (re.range "0" "8")) (re.++ (re.range "0" "9") (re.++ (re.opt (re.range "0" "5")) (re.++ (re.range "0" "9") (re.++ (re.opt (re.range "0" "5")) (re.range "0" "9")))))) (re.++ (str.to.re "9") (re.++ (str.to.re "0") (re.++ (str.to.re "0") (re.++ (str.to.re "0") (re.++ (str.to.re "0") (str.to.re "0")))))))) (re.++ (re.union (str.to.re "N") (str.to.re "S")) (re.++ ((_ re.capture 2) (re.union (re.++ (re.opt (re.range "0" "1")) (re.++ (re.opt (re.range "0" "7")) (re.++ (re.range "0" "9") (re.++ (re.opt (re.range "0" "5")) (re.++ (re.range "0" "9") (re.++ (re.opt (re.range "0" "5")) (re.range "0" "9"))))))) (re.++ (str.to.re "1") (re.++ (str.to.re "8") (re.++ (str.to.re "0") (re.++ (str.to.re "0") (re.++ (str.to.re "0") (re.++ (str.to.re "0") (str.to.re "0"))))))))) (re.++ (re.union (str.to.re "E") (str.to.re "W")) ((_ re.loop 0 3) (re.range "0" "9")))))) re.all)))))	; match == null
(check-sat)
(get-model)
(pop 1)
(exit)
